[runlim] version:		2.0.0rc12
[runlim] host:			ap-Precision-7550
[runlim] time limit:		311040000 seconds
[runlim] real time limit:	600 seconds
[runlim] space limit:		14000 MB
[runlim] argv[0]:		python3
[runlim] argv[1]:		cp_no.py
[runlim] argv[2]:		graph02
[runlim] start:			Wed Mar 25 04:34:07 2026
[runlim] child:			70105
--- Building model for 400 variables ---
--- Solving with CP Optimizer (Integer Mode) ---
 ! --------------------------------------------------- CP Optimizer 22.1.1.0 --
 ! Minimization problem - 400 variables, 2245 constraints
 ! LogVerbosity         = Terse
 ! Initial process time : 0.02s (0.02s extraction + 0.00s propagation)
 !  . Log search space  : 1991.9 (before), 1991.9 (after)
 !  . Memory usage      : 1.3 MB (before), 1.3 MB (after)
 ! Using parallel search with 12 workers.
 ! ----------------------------------------------------------------------------
 !          Best Branches  Non-fixed    W       Branch decision
                        0        400                 -
 + New bound is 0
                        0        400                 -
 + New bound is 1
                        2        400    1   F   142 != node_245
 + New bound is 2
 *            32      412  0.08s        1      (gap is 93.75%)
 *            30      408  0.08s        2      (gap is 93.33%)
 *            28     1889  0.12s        1      (gap is 92.86%)
 *            26     2957  0.16s        6      (gap is 92.31%)
 *            24     3953  0.21s        3      (gap is 91.67%)
 *            22     5947  0.27s        8      (gap is 90.91%)
 *            20     8062  0.38s        8      (gap is 90.00%)
 *            18    11843  0.52s       11      (gap is 88.89%)
 *            16    21673  1.06s       12      (gap is 87.50%)
 *            14    29684  2.38s        1      (gap is 85.71%)
              14     188k        356    4   F   778 != node_231
 + New bound is 3 (gap is 78.57%)
[runlim] sample:		74.41 time, 10.02 real, 216 MB, 8.43 load
[runlim] sample:		151.13 time, 20.01 real, 220 MB, 8.98 load
[runlim] sample:		227.49 time, 30.01 real, 223 MB, 9.44 load
[runlim] sample:		304.91 time, 40.01 real, 225 MB, 9.84 load
              14     980k        386   11   F   142 != node_311
 + New bound is 4 (gap is 71.43%)
[runlim] sample:		378.22 time, 50.01 real, 227 MB, 9.79 load
[runlim] sample:		454.78 time, 60.01 real, 228 MB, 9.57 load
[runlim] sample:		531.60 time, 70.01 real, 230 MB, 9.95 load
[runlim] sample:		607.73 time, 80.01 real, 230 MB, 10.04 load
[runlim] sample:		684.55 time, 90.01 real, 231 MB, 10.34 load
[runlim] sample:		761.58 time, 100.02 real, 232 MB, 10.60 load
[runlim] sample:		844.16 time, 110.01 real, 233 MB, 10.22 load
[runlim] sample:		921.02 time, 120.02 real, 234 MB, 9.54 load
[runlim] sample:		1003.11 time, 130.01 real, 234 MB, 9.26 load
[runlim] sample:		1083.65 time, 140.01 real, 235 MB, 9.68 load
[runlim] sample:		1157.65 time, 150.02 real, 237 MB, 8.34 load
[runlim] sample:		1232.15 time, 160.02 real, 237 MB, 8.43 load
[runlim] sample:		1308.93 time, 170.02 real, 237 MB, 8.98 load
[runlim] sample:		1386.50 time, 180.01 real, 239 MB, 9.12 load
[runlim] sample:		1469.21 time, 190.01 real, 241 MB, 8.11 load
[runlim] sample:		1543.81 time, 200.01 real, 243 MB, 7.83 load
[runlim] sample:		1618.93 time, 210.02 real, 244 MB, 7.66 load
[runlim] sample:		1698.63 time, 220.01 real, 244 MB, 7.79 load
[runlim] sample:		1773.42 time, 230.01 real, 245 MB, 8.44 load
[runlim] sample:		1849.49 time, 240.01 real, 246 MB, 8.47 load
[runlim] sample:		1920.51 time, 250.02 real, 246 MB, 8.50 load
[runlim] sample:		1995.78 time, 260.01 real, 246 MB, 8.31 load
[runlim] sample:		2070.12 time, 270.02 real, 248 MB, 8.06 load
[runlim] sample:		2149.65 time, 280.01 real, 249 MB, 8.44 load
[runlim] sample:		2228.53 time, 290.02 real, 249 MB, 8.25 load
[runlim] sample:		2306.47 time, 300.01 real, 251 MB, 8.24 load
[runlim] sample:		2384.51 time, 310.01 real, 251 MB, 8.09 load
[runlim] sample:		2461.56 time, 320.02 real, 251 MB, 8.77 load
[runlim] sample:		2534.29 time, 330.01 real, 252 MB, 7.58 load
[runlim] sample:		2612.93 time, 340.02 real, 252 MB, 7.62 load
[runlim] sample:		2682.79 time, 350.01 real, 253 MB, 7.63 load
[runlim] sample:		2757.80 time, 360.01 real, 253 MB, 7.17 load
[runlim] sample:		2831.41 time, 370.01 real, 253 MB, 7.03 load
[runlim] sample:		2907.86 time, 380.01 real, 254 MB, 7.48 load
[runlim] sample:		2987.28 time, 390.01 real, 256 MB, 7.36 load
[runlim] sample:		3063.83 time, 400.01 real, 257 MB, 7.47 load
[runlim] sample:		3142.93 time, 410.02 real, 257 MB, 7.71 load
[runlim] sample:		3219.70 time, 420.02 real, 257 MB, 7.55 load
[runlim] sample:		3295.66 time, 430.01 real, 262 MB, 7.42 load
[runlim] sample:		3369.61 time, 440.02 real, 265 MB, 7.75 load
[runlim] sample:		3444.53 time, 450.02 real, 266 MB, 7.59 load
[runlim] sample:		3520.91 time, 460.01 real, 266 MB, 7.79 load
[runlim] sample:		3600.01 time, 470.01 real, 266 MB, 8.43 load
[runlim] sample:		3674.01 time, 480.01 real, 266 MB, 8.33 load
[runlim] sample:		3748.20 time, 490.01 real, 267 MB, 7.74 load
[runlim] sample:		3827.51 time, 500.01 real, 267 MB, 7.29 load
[runlim] sample:		3907.96 time, 510.01 real, 270 MB, 7.93 load
[runlim] sample:		3986.80 time, 520.02 real, 271 MB, 8.48 load
[runlim] sample:		4062.11 time, 530.02 real, 272 MB, 8.27 load
[runlim] sample:		4134.22 time, 540.01 real, 272 MB, 7.15 load
[runlim] sample:		4208.39 time, 550.02 real, 272 MB, 7.89 load
[runlim] sample:		4281.54 time, 560.02 real, 272 MB, 8.45 load
[runlim] sample:		4353.43 time, 570.01 real, 273 MB, 8.40 load
[runlim] sample:		4421.22 time, 580.01 real, 273 MB, 8.15 load
[runlim] sample:		4497.68 time, 590.01 real, 273 MB, 8.01 load
[runlim] sample:		4574.48 time, 600.01 real, 274 MB, 8.54 load
[runlim] end:			Wed Mar 25 04:44:08 2026
[runlim] status:		out of time
[runlim] result:		2
[runlim] children:		2
[runlim] processes:		3
[runlim] real:			601.06 seconds
[runlim] time:			4574.48 seconds
[runlim] space:			274 MB
[runlim] load:			10.60 maximum
[runlim] samples:		6000
